c turning on binary mode checking
c parsing input formula with 1151 variables and 3535 clauses
c finished parsing, read 23325575 bytes from proof file
c detected empty clause; start verification via backward checking
c 1726 of 3535 clauses in core                            
c 529048 of 623957 lemmas in core using 16210023 resolution steps
c 0 RAT lemmas in core; 208696 redundant literals in core lemmas
s VERIFIED
c verification time: 105.000 seconds
